objective value:                                  -54
x6                                                  1 	(obj:-1)
x13                                                 1 	(obj:-1)
x157                                                1 	(obj:-1)
x179                                                1 	(obj:-1)
x198                                                1 	(obj:-1)
x207                                                1 	(obj:-1)
x213                                                1 	(obj:-1)
x219                                                1 	(obj:-1)
x247                                                1 	(obj:-1)
x249                                                1 	(obj:-1)
x253                                                1 	(obj:-1)
x257                                                1 	(obj:-1)
x289                                                1 	(obj:-1)
x294                                                1 	(obj:-1)
x373                                                1 	(obj:-1)
x388                                                1 	(obj:-1)
x401                                                1 	(obj:-1)
x414                                                1 	(obj:-1)
x450                                                1 	(obj:-1)
x471                                                1 	(obj:-1)
x476                                                1 	(obj:-1)
x479                                                1 	(obj:-1)
x536                                                1 	(obj:-1)
x545                                                1 	(obj:-1)
x551                                                1 	(obj:-1)
x564                                                1 	(obj:-1)
x570                                                1 	(obj:-1)
x576                                                1 	(obj:-1)
x586                                                1 	(obj:-1)
x606                                                1 	(obj:-1)
x630                                                1 	(obj:-1)
x637                                                1 	(obj:-1)
x640                                                1 	(obj:-1)
x644                                                1 	(obj:-1)
x658                                                1 	(obj:-1)
x715                                                1 	(obj:-1)
x733                                                1 	(obj:-1)
x763                                                1 	(obj:-1)
x780                                                1 	(obj:-1)
x786                                                1 	(obj:-1)
x795                                                1 	(obj:-1)
x817                                                1 	(obj:-1)
x819                                                1 	(obj:-1)
x825                                                1 	(obj:-1)
x858                                                1 	(obj:-1)
x863                                                1 	(obj:-1)
x864                                                1 	(obj:-1)
x884                                                1 	(obj:-1)
x887                                                1 	(obj:-1)
x920                                                1 	(obj:-1)
x957                                                1 	(obj:-1)
x996                                                1 	(obj:-1)
x1000                                               1 	(obj:-1)
x1010                                               1 	(obj:-1)
